NAME: instances/15_2.tsp
TYPE: TSP
COMMENT: 15-Staedte in Burma (Zaw Win)
DIMENSION: 15
EDGE_WEIGHT_TYPE: GEO
EDGE_WEIGHT_FORMAT: FUNCTION
DISPLAY_DATA_TYPE: COORD_DISPLAY
NODE_COORD_SECTION
1 19.54 -5.08
2 19.46 9.13
3 11.12 4.42
4 4.63 12.87
5 7.51 12.23
6 1.14 14.45
7 17.41 -25.98
8 -2.66 5.07
9 -23.38 17.0
10 -22.59 7.9
11 6.77 5.34
12 -2.82 -5.79
13 -3.96 -12.37
14 -0.1 -27.7
15 -16.54 -22.21
EOF
